letting np_cars_plus be 189
letting np_classes be 45
letting np_options be 24
letting quantity_range_min be 4
letting quantity_range_delta be 136
letting maxcars_range_min be 10
letting maxcars_range_delta be 4
letting blksize_delta_range_min be 6
letting blksize_delta_range_delta be 7
letting usage_card_min be 393
letting usage_card_delta be 24